c read Graph
c width = 182
c time = 104 ms
c width = 19
c time = 183 ms
c width = 18
c time = 227 ms
c width = 17
c time = 444 ms
c width = 16
c time = 863 ms
c width = 15
c time = 1071 ms
c width = 14
c time = 3748 ms
c width = 14
c time = 5009 ms
s td 168 15 195
b 1 1 2 16
b 2 2 3 16 17
b 3 13 14 29 30
b 4 3 16 17 31
b 5 13 29 30 45
b 6 151 166 167 182
b 7 165 179 180 194
b 8 151 167 182 183
b 9 165 179 193 194
b 10 3 4 5 19
b 11 3 5 18 19 32 46
b 12 5 18 19 32 34 46 48
b 13 5 19 32 34 46 48 62
b 14 5 19 34 46 48 62 76
b 15 46 61 62 76
b 16 5 19 21 34 35 48 62 76
b 17 5 19 20 21 35
b 18 5 21 34 35 48 50 62 64 76
b 19 5 21 35 48 50 62 64 76 78
b 20 48 62 63 64 78
b 21 5 21 35 50 62 64 76 78 92
b 22 62 76 77 78 92
b 23 5 21 35 37 50 51 64 76 78 92
b 24 21 35 36 37 51
b 25 5 21 37 50 51 64 67 76 78 82 92 94 96 110
b 26 50 51 64 67 78 80 82 94 96 110
b 27 80 94 95 96 110
b 28 50 51 64 66 67 80 82 96
b 29 50 64 65 66 80
b 30 66 80 81 82 96
b 31 64 78 79 80 94
b 32 5 21 37 51 67 76 78 82 92 94 96 108 110
b 33 78 92 93 94 108
b 34 5 21 37 51 67 76 82 92 94 96 106 108 110
b 35 5 21 37 51 67 82 92 94 96 106 108 110 122
b 36 5 21 37 51 67 82 94 96 106 108 109 110 122
b 37 5 21 37 51 67 82 96 106 108 109 110 122 136
b 38 5 21 37 51 67 82 96 108 109 110 122 124 136 138
b 39 108 122 123 124 138
b 40 5 21 37 51 67 82 96 110 122 124 136 138 154 170 186
b 41 5 21 37 51 67 82 96 110 124 138 140 154 156 170 186
b 42 140 154 155 156 170 186
b 43 5 21 37 51 67 82 96 110 124 126 140 156 170 186
b 44 5 21 37 51 67 82 96 110 126 140 142 156 170 186
b 45 5 21 37 51 53 67 82 96 110 126 142 156 170 186
b 46 5 9 21 23 37 53 67 82 96 110 126 142 156 170 186
b 47 9 23 37 53 67 82 96 110 112 126 142 156 170 186
b 48 9 23 37 53 67 82 96 97 112 126 142 156 170 186
b 49 9 23 37 53 67 82 97 98 112 126 142 156 170 186
b 50 9 23 37 53 67 82 98 112 126 128 142 156 170 186
b 51 9 23 37 53 67 82 98 112 114 128 142 156 170 186
b 52 9 23 37 39 53 67 82 98 114 128 142 156 170 186
b 53 23 37 38 39 53
b 54 9 23 39 53 67 69 82 84 98 114 128 142 156 170 186
b 55 9 23 39 53 55 69 82 84 98 114 128 142 156 170 186
b 56 9 23 39 55 69 70 82 84 98 114 128 142 156 170 186
b 57 9 23 39 55 70 84 98 100 114 128 142 156 170 186
b 58 84 98 99 100 114
b 59 9 23 39 55 70 84 86 100 114 128 142 156 170 186
b 60 70 84 85 86 100
b 61 9 23 25 39 55 70 86 100 114 128 142 156 170 186
b 62 9 23 24 25 39
b 63 9 25 39 41 55 70 86 100 114 128 142 156 170 186
b 64 9 25 41 55 56 70 86 100 114 128 142 156 170 186
b 65 9 13 25 27 41 56 70 86 100 114 128 142 156 170 186
b 66 13 27 28 41 42 56 70 86 100 114 128 142 156 170 186
b 67 13 28 42 56 70 71 86 100 114 128 142 156 170 186
b 68 13 28 42 56 58 71 72 86 100 114 128 142 156 170 186
b 69 13 28 42 58 60 72 74 86 100 114 128 142 156 170 186
b 70 58 60 72 73 74 86 100 114 128 142 156 170 186
b 71 60 72 73 74 86 88 100 114 128 142 156 170 186
b 72 60 72 74 86 88 100 102 114 128 142 156 170 186
b 73 72 86 87 88 102
b 74 60 74 86 88 100 102 114 116 128 142 156 170 186
b 75 86 100 101 102 116
b 76 13 28 42 44 58 60 74
b 77 28 42 43 44 58
b 78 44 58 59 60 74
b 79 13 28 44 45 60
b 80 13 28 29 44 45
b 81 42 56 57 58 72
b 82 9 11 13 25 27 41
b 83 11 12 13 27
b 84 9 10 11 25
b 85 11 25 26 27 41
b 86 25 39 40 41 55
b 87 39 53 54 55 69
b 88 53 67 69 82 83 84 98
b 89 53 67 68 69 83
b 90 98 112 113 114 128
b 91 112 126 127 128 142
b 92 96 110 111 112 126
b 93 5 7 9 21 23 37
b 94 5 6 7 21
b 95 7 21 22 23 37
b 96 7 8 9 23
b 97 37 51 52 53 67
b 98 126 140 141 142 156
b 99 110 124 125 126 140
b 100 124 138 139 140 154
b 101 122 136 138 154 170 184 186
b 102 170 184 185 186
b 103 122 136 138 154 168 170 184
b 104 154 168 169 170 184
b 105 122 136 138 152 154 168 184
b 106 136 152 168 183 184
b 107 136 151 152 168 183
b 108 151 152 167 168 183
b 109 138 152 153 154 168
b 110 122 136 137 138 152
b 111 106 121 122 136
b 112 92 106 107 108 122
b 113 76 91 92 106
b 114 34 48 49 50 64
b 115 32 46 47 48 62
b 116 18 32 33 34 48
b 117 3 18 31 32 46
b 118 3 17 18 31 32
b 119 100 114 115 116 130
b 120 60 74 88 100 102 114 116 128 130 142 156 170 186
b 121 60 74 88 102 114 116 128 130 142 146 158 160 174 190
b 122 60 74 88 102 114 116 128 130 142 156 158 170 174 186 190
b 123 60 74 88 102 114 116 128 130 142 158 170 174 186 190
b 124 60 74 88 102 116 118 120 130 134 146 160 174 190
b 125 102 116 118 120 130 132 134 146 160 174 190
b 126 102 116 117 118 132
b 127 118 120 132 134 146 160 174 176 190
b 128 160 174 175 176 190
b 129 118 120 132 134 146 160 162 176 190
b 130 118 120 132 134 146 148 162 176 190
b 131 120 134 148 162 176 190 192
b 132 176 190 191 192
b 133 120 134 148 150 162 176 192
b 134 134 148 150 162 176 178 192
b 135 162 176 177 178 192
b 136 134 148 150 162 164 178 192
b 137 134 148 149 150 164
b 138 150 164 178 192 193
b 139 150 164 165 178 193
b 140 164 165 178 179 193
b 141 148 162 163 164 178
b 142 120 134 135 150
b 143 132 146 147 148 162
b 144 118 132 133 134 148
b 145 146 160 161 162 176
b 146 116 130 131 132 146
b 147 60 74 88 102 104 118 120 134
b 148 104 118 119 120 134
b 149 88 102 103 104 118
b 150 60 74 88 90 104 120
b 151 90 104 105 120
b 152 74 88 89 90 104
b 153 60 74 75 90
b 154 142 156 158 170 172 174 186 190
b 155 158 172 174 186 188 190
b 156 172 186 187 188
b 157 174 188 189 190
b 158 158 172 173 174 188
b 159 156 170 171 172 186
b 160 142 156 157 158 172
b 161 114 128 130 142 144 146 158 160 174
b 162 114 128 129 130 144
b 163 144 158 159 160 174
b 164 128 142 143 144 158
b 165 130 144 145 146 160
b 166 180 194 195
b 167 166 181 182
b 168 14 15 30
1 2
2 4
3 168
3 5
4 118
5 80
6 167
6 8
7 166
7 9
8 108
9 140
10 11
11 117
11 12
12 116
12 13
13 115
13 14
14 16
14 15
16 18
16 17
18 114
18 19
19 21
19 20
21 23
21 22
23 25
23 24
25 32
25 26
26 28
26 31
26 27
28 30
28 29
32 34
32 33
34 113
34 35
35 112
35 36
36 37
37 111
37 38
38 40
38 39
40 101
40 41
41 100
41 43
41 42
43 99
43 44
44 98
44 45
45 97
45 46
46 93
46 47
47 92
47 48
48 49
49 50
50 91
50 51
51 90
51 52
52 54
52 53
54 88
54 55
55 87
55 56
56 57
57 59
57 58
59 61
59 60
61 63
61 62
63 86
63 64
64 65
65 82
65 66
66 67
67 68
68 81
68 69
69 76
69 70
70 71
71 72
72 74
72 73
74 120
74 75
76 77
76 78
76 79
79 80
82 83
82 84
82 85
88 89
93 96
93 94
93 95
101 103
101 102
103 104
103 105
105 109
105 110
105 106
106 107
107 108
117 118
119 120
120 122
121 124
121 161
121 123
122 154
122 123
124 125
124 147
125 126
125 127
125 146
127 128
127 129
129 145
129 130
130 144
130 143
130 131
131 132
131 133
133 142
133 134
134 135
134 136
136 138
136 137
136 141
138 139
139 140
147 149
147 150
147 148
150 153
150 151
150 152
154 159
154 160
154 155
155 156
155 157
155 158
161 165
161 163
161 164
161 162
